40
1 0 6
2 0 2
2 1 1
3 0 1
3 1 6
3 2 7
4 0 8
4 1 14
4 2 6
4 3 11
5 0 10
5 1 7
5 2 12
5 3 14
5 4 1
6 0 14
6 1 6
6 2 14
6 3 4
6 4 6
6 5 7
7 0 12
7 1 1
7 2 10
7 3 8
7 4 11
7 5 6
7 6 1
8 0 13
8 1 5
8 2 6
8 3 13
8 4 11
8 5 4
8 6 11
8 7 6
9 0 4
9 1 9
9 2 11
9 3 13
9 4 11
9 5 12
9 6 10
9 7 4
9 8 10
10 0 10
10 1 13
10 2 11
10 3 6
10 4 9
10 5 3
10 6 6
10 7 13
10 8 12
10 9 5
11 0 9
11 1 7
11 2 7
11 3 11
11 4 10
11 5 12
11 6 12
11 7 11
11 8 7
11 9 9
11 10 7
12 0 10
12 1 4
12 2 13
12 3 2
12 4 10
12 5 7
12 6 9
12 7 6
12 8 12
12 9 14
12 10 14
12 11 3
13 0 2
13 1 10
13 2 9
13 3 9
13 4 2
13 5 6
13 6 1
13 7 12
13 8 11
13 9 8
13 10 12
13 11 6
13 12 7
14 0 9
14 1 9
14 2 8
14 3 14
14 4 6
14 5 6
14 6 13
14 7 10
14 8 7
14 9 11
14 10 10
14 11 2
14 12 11
14 13 13
15 0 5
15 1 3
15 2 3
15 3 14
15 4 5
15 5 13
15 6 3
15 7 9
15 8 8
15 9 4
15 10 9
15 11 7
15 12 12
15 13 7
15 14 3
16 0 8
16 1 5
16 2 3
16 3 10
16 4 11
16 5 3
16 6 7
16 7 1
16 8 6
16 9 1
16 10 2
16 11 2
16 12 2
16 13 10
16 14 7
16 15 2
17 0 2
17 1 2
17 2 12
17 3 13
17 4 9
17 5 11
17 6 6
17 7 13
17 8 8
17 9 4
17 10 8
17 11 14
17 12 3
17 13 6
17 14 13
17 15 12
17 16 6
18 0 10
18 1 11
18 2 12
18 3 11
18 4 9
18 5 9
18 6 5
18 7 7
18 8 9
18 9 9
18 10 10
18 11 14
18 12 11
18 13 10
18 14 1
18 15 7
18 16 4
18 17 9
19 0 12
19 1 9
19 2 7
19 3 14
19 4 5
19 5 9
19 6 11
19 7 1
19 8 14
19 9 12
19 10 10
19 11 11
19 12 5
19 13 12
19 14 9
19 15 14
19 16 13
19 17 13
19 18 10
20 0 7
20 1 8
20 2 5
20 3 5
20 4 2
20 5 10
20 6 13
20 7 7
20 8 13
20 9 3
20 10 4
20 11 5
20 12 7
20 13 9
20 14 14
20 15 3
20 16 12
20 17 10
20 18 10
20 19 1
21 0 10
21 1 12
21 2 2
21 3 2
21 4 10
21 5 7
21 6 1
21 7 8
21 8 1
21 9 8
21 10 4
21 11 3
21 12 14
21 13 3
21 14 10
21 15 1
21 16 6
21 17 8
21 18 3
21 19 5
21 20 11
22 0 4
22 1 7
22 2 14
22 3 11
22 4 9
22 5 3
22 6 9
22 7 4
22 8 2
22 9 9
22 10 4
22 11 6
22 12 3
22 13 4
22 14 10
22 15 7
22 16 2
22 17 9
22 18 12
22 19 8
22 20 2
22 21 2
23 0 8
23 1 6
23 2 3
23 3 2
23 4 6
23 5 8
23 6 13
23 7 4
23 8 5
23 9 13
23 10 12
23 11 3
23 12 9
23 13 9
23 14 14
23 15 12
23 16 1
23 17 2
23 18 5
23 19 7
23 20 2
23 21 8
23 22 3
24 0 5
24 1 5
24 2 9
24 3 10
24 4 11
24 5 8
24 6 6
24 7 9
24 8 12
24 9 2
24 10 11
24 11 5
24 12 5
24 13 1
24 14 5
24 15 14
24 16 5
24 17 11
24 18 3
24 19 7
24 20 9
24 21 8
24 22 9
24 23 2
25 0 3
25 1 10
25 2 3
25 3 10
25 4 1
25 5 6
25 6 5
25 7 1
25 8 11
25 9 4
25 10 10
25 11 1
25 12 13
25 13 9
25 14 12
25 15 8
25 16 9
25 17 10
25 18 2
25 19 10
25 20 3
25 21 2
25 22 10
25 23 14
25 24 5
26 0 11
26 1 8
26 2 4
26 3 1
26 4 13
26 5 13
26 6 7
26 7 14
26 8 3
26 9 9
26 10 13
26 11 8
26 12 7
26 13 5
26 14 6
26 15 10
26 16 13
26 17 9
26 18 13
26 19 12
26 20 9
26 21 1
26 22 13
26 23 7
26 24 10
26 25 6
27 0 14
27 1 10
27 2 9
27 3 12
27 4 10
27 5 12
27 6 10
27 7 8
27 8 1
27 9 12
27 10 2
27 11 11
27 12 4
27 13 8
27 14 7
27 15 4
27 16 3
27 17 8
27 18 2
27 19 11
27 20 14
27 21 6
27 22 5
27 23 4
27 24 6
27 25 5
27 26 10
28 0 7
28 1 13
28 2 3
28 3 14
28 4 2
28 5 13
28 6 14
28 7 13
28 8 1
28 9 4
28 10 4
28 11 8
28 12 13
28 13 5
28 14 1
28 15 6
28 16 13
28 17 7
28 18 12
28 19 4
28 20 4
28 21 13
28 22 8
28 23 14
28 24 13
28 25 7
28 26 10
28 27 10
29 0 12
29 1 8
29 2 8
29 3 6
29 4 4
29 5 2
29 6 2
29 7 9
29 8 6
29 9 14
29 10 13
29 11 14
29 12 11
29 13 10
29 14 2
29 15 7
29 16 12
29 17 12
29 18 10
29 19 4
29 20 1
29 21 14
29 22 10
29 23 4
29 24 5
29 25 11
29 26 8
29 27 10
29 28 9
30 0 6
30 1 2
30 2 12
30 3 14
30 4 4
30 5 5
30 6 12
30 7 10
30 8 3
30 9 3
30 10 1
30 11 2
30 12 2
30 13 7
30 14 14
30 15 5
30 16 1
30 17 9
30 18 2
30 19 4
30 20 13
30 21 4
30 22 10
30 23 1
30 24 14
30 25 9
30 26 5
30 27 14
30 28 6
30 29 5
31 0 7
31 1 9
31 2 5
31 3 13
31 4 4
31 5 9
31 6 4
31 7 9
31 8 1
31 9 7
31 10 14
31 11 10
31 12 12
31 13 5
31 14 14
31 15 1
31 16 7
31 17 14
31 18 12
31 19 14
31 20 11
31 21 8
31 22 14
31 23 3
31 24 10
31 25 10
31 26 8
31 27 13
31 28 11
31 29 4
31 30 7
32 0 13
32 1 11
32 2 13
32 3 7
32 4 12
32 5 1
32 6 4
32 7 1
32 8 1
32 9 10
32 10 6
32 11 1
32 12 7
32 13 8
32 14 8
32 15 9
32 16 14
32 17 2
32 18 8
32 19 10
32 20 14
32 21 3
32 22 11
32 23 12
32 24 13
32 25 8
32 26 10
32 27 11
32 28 5
32 29 8
32 30 1
32 31 11
33 0 10
33 1 13
33 2 4
33 3 9
33 4 10
33 5 12
33 6 14
33 7 10
33 8 1
33 9 4
33 10 5
33 11 2
33 12 4
33 13 11
33 14 6
33 15 8
33 16 12
33 17 10
33 18 12
33 19 6
33 20 1
33 21 12
33 22 14
33 23 2
33 24 11
33 25 9
33 26 5
33 27 6
33 28 3
33 29 9
33 30 4
33 31 9
33 32 5
34 0 7
34 1 8
34 2 3
34 3 2
34 4 7
34 5 7
34 6 14
34 7 6
34 8 4
34 9 1
34 10 8
34 11 6
34 12 13
34 13 1
34 14 4
34 15 14
34 16 12
34 17 13
34 18 11
34 19 1
34 20 3
34 21 11
34 22 10
34 23 14
34 24 3
34 25 14
34 26 3
34 27 13
34 28 13
34 29 9
34 30 4
34 31 12
34 32 12
34 33 3
35 0 1
35 1 8
35 2 5
35 3 13
35 4 13
35 5 11
35 6 4
35 7 6
35 8 4
35 9 13
35 10 3
35 11 2
35 12 11
35 13 13
35 14 5
35 15 10
35 16 6
35 17 6
35 18 4
35 19 11
35 20 3
35 21 6
35 22 5
35 23 1
35 24 3
35 25 8
35 26 13
35 27 10
35 28 5
35 29 12
35 30 6
35 31 9
35 32 6
35 33 12
35 34 11
36 0 11
36 1 14
36 2 13
36 3 6
36 4 12
36 5 1
36 6 14
36 7 6
36 8 11
36 9 13
36 10 9
36 11 6
36 12 14
36 13 12
36 14 11
36 15 14
36 16 10
36 17 1
36 18 9
36 19 14
36 20 14
36 21 6
36 22 13
36 23 12
36 24 7
36 25 4
36 26 8
36 27 1
36 28 5
36 29 12
36 30 7
36 31 7
36 32 13
36 33 13
36 34 3
36 35 12
37 0 9
37 1 14
37 2 9
37 3 2
37 4 9
37 5 10
37 6 13
37 7 4
37 8 7
37 9 4
37 10 2
37 11 6
37 12 4
37 13 8
37 14 7
37 15 11
37 16 3
37 17 12
37 18 4
37 19 6
37 20 14
37 21 12
37 22 6
37 23 7
37 24 14
37 25 12
37 26 6
37 27 14
37 28 2
37 29 8
37 30 14
37 31 1
37 32 7
37 33 9
37 34 10
37 35 4
37 36 5
38 0 13
38 1 2
38 2 9
38 3 8
38 4 8
38 5 5
38 6 10
38 7 1
38 8 6
38 9 10
38 10 11
38 11 10
38 12 5
38 13 10
38 14 10
38 15 4
38 16 1
38 17 4
38 18 13
38 19 14
38 20 5
38 21 13
38 22 12
38 23 9
38 24 13
38 25 13
38 26 5
38 27 12
38 28 12
38 29 9
38 30 2
38 31 2
38 32 2
38 33 3
38 34 10
38 35 1
38 36 1
38 37 8
39 0 11
39 1 4
39 2 14
39 3 14
39 4 9
39 5 7
39 6 6
39 7 3
39 8 5
39 9 14
39 10 5
39 11 3
39 12 2
39 13 9
39 14 14
39 15 6
39 16 4
39 17 5
39 18 12
39 19 8
39 20 3
39 21 5
39 22 9
39 23 8
39 24 6
39 25 12
39 26 10
39 27 3
39 28 2
39 29 8
39 30 10
39 31 12
39 32 5
39 33 3
39 34 1
39 35 6
39 36 7
39 37 13
39 38 5
